solution status: time limit reached
objective value:                     18.0000000526506
$_4_y                                              21 	(obj:0)
$_4_z                                              12 	(obj:0)
$_104_y                                            16 	(obj:0)
$_104_z                                            15 	(obj:0)
$_114_y                                            17 	(obj:0)
$_114_z                                            18 	(obj:0)
$_86_y                                             15 	(obj:0)
$_86_z                               17.0000000022678 	(obj:0)
$_129_y                                            17 	(obj:0)
$_129_z                                            17 	(obj:0)
$_101_y                                            16 	(obj:0)
$_101_z                                            14 	(obj:0)
$_18_y                                             22 	(obj:0)
$_18_z                                             13 	(obj:0)
$_89_y                                             16 	(obj:0)
$_89_z                                             17 	(obj:0)
$_125_y                                            15 	(obj:0)
$_125_z                              14.9999999973663 	(obj:0)
$_90_y                                             19 	(obj:0)
$_90_z                                             17 	(obj:0)
$_82_y                               17.9999999975003 	(obj:0)
$_82_z                                             21 	(obj:0)
$_88_y                                             16 	(obj:0)
$_88_z                                             19 	(obj:0)
$_9_y                                              14 	(obj:0)
$_9_z                                              15 	(obj:0)
$_65_y                                             16 	(obj:0)
$_65_z                                             18 	(obj:0)
$_113_y                                            15 	(obj:0)
$_113_z                                            18 	(obj:0)
$_3_y                                              14 	(obj:0)
$_3_z                                              13 	(obj:0)
$_77_y                                             18 	(obj:0)
$_77_z                                             19 	(obj:0)
$_117_y                                            18 	(obj:0)
$_117_z                                            18 	(obj:0)
$_118_y                                            19 	(obj:0)
$_118_z                                            18 	(obj:0)
$_126_y                                            17 	(obj:0)
$_126_z                                            15 	(obj:0)
$_127_y                                            17 	(obj:0)
$_127_z                                            16 	(obj:0)
$_124_y                                            18 	(obj:0)
$_124_z                                            16 	(obj:0)
$_102_y                                            15 	(obj:0)
$_102_z                                            14 	(obj:0)
$_100_y                                            13 	(obj:0)
$_100_z                                            17 	(obj:0)
$_84_y                                             15 	(obj:0)
$_84_z                               15.9999999984422 	(obj:0)
$_17_y                                             16 	(obj:0)
$_17_z                                             12 	(obj:0)
$_112_y                                            19 	(obj:0)
$_112_z                                            16 	(obj:0)
$_128_y                                            17 	(obj:0)
$_128_z                                            19 	(obj:0)
$_92_y                                             20 	(obj:0)
$_92_z                                             19 	(obj:0)
$_116_y                                            20 	(obj:0)
$_116_z                                            18 	(obj:0)
$_140_y                                            20 	(obj:0)
$_140_z                              16.9999999953065 	(obj:0)
$_2_y                                              14 	(obj:0)
$_2_z                                              12 	(obj:0)
$_16_y                                             15 	(obj:0)
$_16_z                                             12 	(obj:0)
$_136_y                                            18 	(obj:0)
$_136_z                                            15 	(obj:0)
$_7_y                                              13 	(obj:0)
$_7_z                                              14 	(obj:0)
x72                                                 2 	(obj:1)
x80                                  1.00000000310581 	(obj:1)
x81                                  1.00000000815307 	(obj:1)
x83                              5.69924108385763e-09 	(obj:1)
x90                                                 2 	(obj:1)
x98                                                 2 	(obj:1)
x105                                                1 	(obj:1)
x119                                                2 	(obj:1)
x120                             6.82389240265934e-09 	(obj:1)
x124                                                2 	(obj:1)
x131                                                2 	(obj:1)
x134                                                1 	(obj:1)
x135                             -1.58805374462885e-09 	(obj:1)
x137                             6.82389240265934e-09 	(obj:1)
x138                                 1.00000001835076 	(obj:1)
x140                                 1.00000000528202 	(obj:1)
